
Log started (V11.0.0) Mon May 26 19:04:19 2008

Tried aggregator 1 time.
Reduced MIP has 550 rows, 25001 columns, and 50050 nonzeros.
Presolve time =    0.20 sec.
Clique table members: 500.
MIP emphasis: balance optimality and feasibility.
MIP search method: dynamic search.
Parallel mode: none, using 1 thread.
Root relaxation solution time =    2.48 sec.

        Nodes                                         Cuts/
   Node  Left     Objective  IInf  Best Integer     Best Node    ItCnt     Gap

*     0+    0                        31321.0000      530.6800     1067   98.31%
*     0+    0                          639.0000      530.6800     1067   16.95%
      0     0      531.0000    94      639.0000      Fract: 8     1085   16.90%
*     0+    0                          590.0000      531.0000     1085   10.00%
      0     0      531.0000    97      590.0000      531.0000     1099   10.00%
      0     0      531.0000    93      590.0000     Covers: 1     1109   10.00%
      0     0      531.0000    95      590.0000     Covers: 2     1127   10.00%
*     0+    0                          589.0000      531.0000     1127    9.85%
*     0+    0                          582.0000      531.0000     1127    8.76%
*     0+    0                          578.0000      531.0000     1127    8.13%
*     0+    0                          574.0000      531.0000     1127    7.49%
*     0+    0                          572.0000      531.0000     1127    7.17%
*     0+    0                          571.0000      531.0000     1127    7.01%
      0     2      531.0000    95      571.0000      531.0000     1127    7.01%
*    20+   20                          567.0000      531.0000     1542    6.35%
*    50+   50                          566.0000      531.0000     2564    6.18%
*    60+   60                          565.0000      531.0000     3175    6.02%
*    60+   60                          564.0000      531.0000     3175    5.85%
*    70+   70                          563.0000      531.0000     3643    5.68%
*   100+  100                          558.0000      531.0000     6182    4.84%
    100   102      531.0000    96      558.0000      531.0000     6182    4.84%
*   110+  110                          557.0000      531.0000     6940    4.67%
*   110+  110                          556.0000      531.0000     6940    4.50%
*   140+  140                          555.0000      531.0000     9502    4.32%
*   170+  170                          554.0000      531.0000    12841    4.15%
*   190+  190                          553.0000      531.0000    15285    3.98%
*   190+  190                          552.0000      531.0000    15285    3.80%
*   200+  200                          551.0000      531.0000    16467    3.63%
*   200+  200                          550.0000      531.0000    16467    3.45%
    200   202      531.0000    85      550.0000      531.0000    16467    3.45%
*   230+  229                          549.0000      531.0000    19666    3.28%
*   240+  239                          548.0000      531.0000    21615    3.10%
*   270+  269                          547.0000      531.0000    25867    2.93%
*   280+  279                          546.0000      531.0000    26832    2.75%
*   290+  288                          545.0000      531.0000    27532    2.57%
*   300+  298                          544.0000      531.0000    29199    2.39%
    300   300      532.0000    77      544.0000      531.0000    29199    2.39%
*   380+  378                          543.0000      531.0000    60603    2.21%
    400   400      532.0000    92      543.0000      531.0000    72063    2.21%
*   460+  457                          542.0000      531.0000   111966    2.03%
    500   490      533.0000    82      542.0000      531.0000   134532    2.03%
*   540+  526                          541.0000      531.0000   139231    1.85%
    600   588      533.0000    93      541.0000      531.0000   169255    1.85%
*   650+  635                          540.0000      531.0000   213080    1.67%
    700   651      531.0000    92      540.0000      531.0000   226970    1.67%
    800   679      531.0000    94      540.0000      531.0000   233036    1.67%
    900   703      532.0000    91      540.0000      531.0000   243093    1.67%
   1000   725      532.0000    95      540.0000      531.0000   252785    1.67%
Elapsed time = 366.56 sec. (tree size = 10.03 MB, solutions = 33)
   1100   749      532.0020    92      540.0000      531.0000   263061    1.67%
   1200   770      533.0000    89      540.0000      531.0000   275395    1.67%
   1300   791      533.0060    95      540.0000      531.0000   307324    1.67%
   1400   814      534.0000    86      540.0000      531.0000   326082    1.67%
   1500   844      536.0000    81      540.0000      531.0000   380744    1.67%
   1600   915      535.0000    81      540.0000      531.0000   404386    1.67%
   1700  1014      536.0000    72      540.0000      531.0000   442849    1.67%
   1800  1114      536.0000    84      540.0000      531.0000   463933    1.67%
   1900  1209      538.0000    75      540.0000      531.0000   475576    1.67%
   2000  1309      538.0000    75      540.0000      531.0000   481608    1.67%
Elapsed time = 650.01 sec. (tree size = 19.87 MB, solutions = 33)
   2100  1395      531.0000    91      540.0000      531.0000   488366    1.67%
   2200  1491      531.0000    88      540.0000      531.0000   499171    1.67%
   2300  1589      531.0000    86      540.0000      531.0000   518015    1.67%
   2400  1677      532.0000    92      540.0000      531.0000   534323    1.67%
   2500  1772      532.0000    84      540.0000      531.0000   573866    1.67%
   2600  1869      533.0000    92      540.0000      531.0000   592693    1.67%
   2700  1966      534.0000    85      540.0000      531.0000   644777    1.67%
   2800  2059      535.0000    91      540.0000      531.0000   712985    1.67%
   2900  2159      535.0000    86      540.0000      531.0000   733326    1.67%
   3000  2254      536.0000    83      540.0000      531.0000   760634    1.67%
Elapsed time = 990.89 sec. (tree size = 34.50 MB, solutions = 33)
   3100  2347      538.0000    62      540.0000      531.0000   773710    1.67%
   3200  2447      538.0000    78      540.0000      531.0000   778646    1.67%
   3300  2544      539.0000    61      540.0000      531.0000   786916    1.67%
   3400  2622      532.0000    91      540.0000      531.0000   832835    1.67%
   3500  2721      532.0000    91      540.0000      531.0000   839787    1.67%
   3600  2821      532.0000    96      540.0000      531.0000   851834    1.67%
   3700  2920      532.0000    96      540.0000      531.0000   873531    1.67%
   3800  3020      532.0000    91      540.0000      531.0000   884086    1.67%
   3900  3119      532.0000    91      540.0000      531.0000   902026    1.67%
   4000  3219      533.0000    86      540.0000      531.0000   914809    1.67%
Elapsed time = 1284.61 sec. (tree size = 53.57 MB, solutions = 33)
   4100  3318      532.0000    93      540.0000      531.0000   948044    1.67%
   4200  3418      532.0000    97      540.0000      531.0000   963015    1.67%
   4300  3517      532.0000    95      540.0000      531.0000   985523    1.67%
   4400  3617      533.0000    89      540.0000      531.0000  1007322    1.67%
   4500  3716      532.0000    88      540.0000      531.0000  1037942    1.67%
   4600  3816      532.0000    92      540.0000      531.0000  1121243    1.67%
   4700  3915      532.0000    94      540.0000      531.0000  1204997    1.67%
   4800  4015      539.0000    80      540.0000      531.0000  1213743    1.67%
   4900  4114      532.0000    92      540.0000      531.0000  1240626    1.67%
   5000  4214      533.0000    96      540.0000      531.0000  1316007    1.67%
Elapsed time = 1775.80 sec. (tree size = 75.90 MB, solutions = 33)
   5100  4313      533.0000    92      540.0000      531.0000  1430489    1.67%
   5200  4413      533.0000    93      540.0000      531.0000  1527499    1.67%
   5300  4511      531.0000    96      540.0000      531.0000  1653480    1.67%
   5400  4596      531.0035   102      540.0000      531.0000  1767184    1.67%
   5500  4695      531.0000    99      540.0000      531.0000  1826108    1.67%
   5600  4787      532.0000    89      540.0000      531.0000  1895657    1.67%
   5700  4885      532.0000    91      540.0000      531.0000  1964329    1.67%
   5800  4985      532.0000    95      540.0000      531.0000  2004130    1.67%
   5900  5084      532.0000    95      540.0000      531.0000  2084210    1.67%
   6000  5184      537.0000    80      540.0000      531.0000  2111216    1.67%
Elapsed time = 2621.67 sec. (tree size = 98.33 MB, solutions = 33)
   6100  5283      531.0000    95      540.0000      531.0000  2166465    1.67%
   6200  5372      532.0000    89      540.0000      531.0000  2261531    1.67%
   6300  5471      533.0000    84      540.0000      531.0000  2298455    1.67%
   6400  5571      533.0000    85      540.0000      531.0000  2370612    1.67%
   6500  5669      531.0000   105      540.0000      531.0000  2496857    1.67%
   6600  5766      532.0000    89      540.0000      531.0000  2529329    1.67%
   6700  5865      532.0000    87      540.0000      531.0000  2594716    1.67%
   6800  5965      537.0000    62      540.0000      531.0000  2632084    1.67%
   6900  6062      531.0000   103      540.0000      531.0000  2686142    1.67%
   7000  6158      532.0000    84      540.0000      531.0000  2734578    1.67%
Elapsed time = 3393.59 sec. (tree size = 122.09 MB, solutions = 33)
   7100  6257      532.0000    94      540.0000      531.0000  2792391    1.67%
   7200  6357      532.0000    94      540.0000      531.0000  2823692    1.67%
Began writing nodes to disk (directory ./cpxa04064 created)
   7300  6456      532.0000    90      540.0000      531.0000  2874067    1.67%
   7400  6556      532.0000    87      540.0000      531.0000  2891679    1.67%
   7500  6652      531.0000   105      540.0000      531.0000  2936077    1.67%
   7600  6746      532.0000    89      540.0000      531.0000  2978403    1.67%
   7700  6846      531.0000   107      540.0000      531.0000  3036998    1.67%
   7800  6936      531.0000    85      540.0000      531.0000  3121570    1.67%
   7900  7033      532.0000    91      540.0000      531.0000  3147330    1.67%
   8000  7133      532.0000    93      540.0000      531.0000  3202135    1.67%
Elapsed time = 4021.70 sec. (tree size = 146.63 MB, solutions = 33)
Nodefile size = 18.63 MB (12.96 MB after compression)
   8100  7232      532.0000    87      540.0000      531.0000  3256094    1.67%
   8200  7332      532.0000    87      540.0000      531.0000  3273943    1.67%
   8300  7431      532.0000    85      540.0000      531.0000  3311686    1.67%
   8400  7531      532.0000    97      540.0000      531.0000  3396695    1.67%
   8500  7629      532.0000    83      540.0000      531.0000  3473986    1.67%
   8600  7729      532.0000    91      540.0000      531.0000  3571945    1.67%
   8700  7828      534.0000    74      540.0000      531.0000  3636752    1.67%
   8800  7928      535.0000    77      540.0000      531.0000  3646952    1.67%
   8900  8027      532.0000    98      540.0000      531.0000  3671704    1.67%
   9000  8127      537.0000    77      540.0000      531.0000  3698587    1.67%
Elapsed time = 4703.86 sec. (tree size = 173.76 MB, solutions = 33)
Nodefile size = 45.94 MB (31.51 MB after compression)
   9100  8226      532.0000    88      540.0000      531.0000  3740902    1.67%
   9200  8326      532.0000    91      540.0000      531.0000  3757871    1.67%
   9300  8424      531.0000   105      540.0000      531.0000  3797951    1.67%
   9400  8517      531.0000   102      540.0000      531.0000  3844423    1.67%
   9500  8612      532.0000    88      540.0000      531.0000  3926132    1.67%
   9600  8712      532.0000    91      540.0000      531.0000  4038235    1.67%
   9700  8811      532.0000    92      540.0000      531.0000  4120721    1.67%
   9800  8911      532.0000    91      540.0000      531.0000  4191765    1.67%
   9900  9008      532.0000    96      540.0000      531.0000  4232911    1.67%
  10000  9108      532.0000   100      540.0000      531.0000  4311600    1.67%
Elapsed time = 5460.63 sec. (tree size = 201.71 MB, solutions = 33)
Nodefile size = 73.85 MB (51.90 MB after compression)
  10100  9206      532.0000    94      540.0000      531.0000  4410518    1.67%
  10200  9306      532.0000    87      540.0000      531.0000  4503340    1.67%
  10300  9405      532.0000    97      540.0000      531.0000  4563045    1.67%
  10400  9505      537.0000    54      540.0000      531.0000  4641908    1.67%
  10500  9603      531.0000   112      540.0000      531.0000  4660567    1.67%
  10600  9695      532.0000    85      540.0000      531.0000  4692890    1.67%
  10700  9794      532.0000    89      540.0000      531.0000  4735426    1.67%
  10800  9894      538.0000    59      540.0000      531.0000  4751368    1.67%
  10900  9991      532.0000    90      540.0000      531.0000  4773278    1.67%
  11000 10091      532.0000    87      540.0000      531.0000  4822810    1.67%
Elapsed time = 6169.34 sec. (tree size = 230.50 MB, solutions = 33)
Nodefile size = 103.44 MB (74.43 MB after compression)
  11100 10190      532.0000    91      540.0000      531.0000  4876318    1.67%
  11200 10290      532.0000    91      540.0000      531.0000  4898468    1.67%
  11300 10390      531.0000   105      540.0000      531.0000  4932296    1.67%
  11400 10489      532.0000    89      540.0000      531.0000  4943881    1.67%
  11500 10588      531.0000   103      540.0000      531.0000  4977423    1.67%
  11600 10683      532.0000    91      540.0000      531.0000  5014661    1.67%
  11700 10781      531.0000    96      540.0000      531.0000  5054605    1.67%
  11800 10874      531.0039    98      540.0000      531.0000  5100792    1.67%
  11900 10968      531.0000    97      540.0000      531.0000  5153527    1.67%
  12000 11063      532.0000    89      540.0000      531.0000  5168779    1.67%
Elapsed time = 6687.94 sec. (tree size = 259.92 MB, solutions = 33)
Nodefile size = 132.65 MB (96.44 MB after compression)
  12100 11163      531.0000   113      540.0000      531.0000  5206416    1.67%
  12200 11262      539.0000    62      540.0000      531.0000  5221158    1.67%
  12300 11361      532.0000   102      540.0000      531.0000  5237014    1.67%
  12400 11461      536.0000    77      540.0000      531.0000  5238838    1.67%
  12500 11560      531.0000   105      540.0000      531.0000  5265400    1.67%
  12600 11651      531.0013   102      540.0000      531.0000  5309132    1.67%
  12700 11738      532.0000    88      540.0000      531.0000  5372324    1.67%
  12800 11838      532.0000    99      540.0000      531.0000  5394019    1.67%
  12900 11938      531.0000   108      540.0000      531.0000  5434112    1.67%
  13000 12038      532.0000    87      540.0000      531.0000  5455817    1.67%
Elapsed time = 7179.16 sec. (tree size = 291.05 MB, solutions = 33)
Nodefile size = 163.80 MB (120.74 MB after compression)
  13100 12137      532.0000    97      540.0000      531.0000  5461490    1.67%

Cover cuts applied:  1612
Mixed integer rounding cuts applied:  9
Zero-half cuts applied:  1

Solution pool: 33 solutions saved.

MIP - Time limit exceeded, integer feasible:  Objective = 5.4000000000e+002
Current MIP best bound = 5.3100000000e+002 (gap = 9, 1.67%)
Solution time = 7200.14 sec.  Iterations = 5461943  Nodes = 13103 (12139)


Incumbent solution
Variable Name           Solution Value
Cmax                        540.000000
X_1_47                        1.000000
X_2_2                         1.000000
X_3_50                        1.000000
X_4_26                        1.000000
X_5_46                        1.000000
X_6_15                        1.000000
X_7_34                        1.000000
X_8_49                        1.000000
X_9_3                         1.000000
X_10_24                       1.000000
X_11_5                        1.000000
X_12_41                       1.000000
X_13_28                       1.000000
X_14_8                        1.000000
X_15_38                       1.000000
X_16_46                       1.000000
X_17_36                       1.000000
X_18_11                       1.000000
X_19_37                       1.000000
X_20_49                       1.000000
X_21_42                       1.000000
X_22_42                       1.000000
X_23_33                       1.000000
X_24_46                       1.000000
X_25_35                       1.000000
X_26_26                       1.000000
X_27_8                        1.000000
X_28_28                       1.000000
X_29_8                        1.000000
X_30_44                       1.000000
X_31_3                        1.000000
X_32_23                       1.000000
X_33_15                       1.000000
X_34_2                        1.000000
X_35_28                       1.000000
X_36_39                       1.000000
X_37_39                       1.000000
X_38_45                       1.000000
X_39_39                       1.000000
X_40_12                       1.000000
X_41_7                        1.000000
X_42_26                       1.000000
X_43_22                       1.000000
X_44_47                       1.000000
X_45_19                       1.000000
X_46_30                       1.000000
X_47_9                        1.000000
X_48_32                       1.000000
X_49_2                        1.000000
X_50_44                       1.000000
X_51_45                       1.000000
X_52_13                       1.000000
X_53_46                       1.000000
X_54_45                       1.000000
X_55_47                       1.000000
X_56_4                        1.000000
X_57_41                       1.000000
X_58_27                       1.000000
X_59_44                       1.000000
X_60_35                       1.000000
X_61_45                       1.000000
X_62_49                       1.000000
X_63_8                        1.000000
X_64_27                       1.000000
X_65_50                       1.000000
X_66_36                       1.000000
X_67_14                       1.000000
X_68_9                        1.000000
X_69_33                       1.000000
X_70_26                       1.000000
X_71_4                        1.000000
X_72_1                        1.000000
X_73_7                        1.000000
X_74_15                       1.000000
X_75_21                       1.000000
X_76_14                       1.000000
X_77_18                       1.000000
X_78_15                       1.000000
X_79_40                       1.000000
X_80_13                       1.000000
X_81_9                        1.000000
X_82_27                       1.000000
X_83_5                        1.000000
X_84_42                       1.000000
X_85_24                       1.000000
X_86_15                       1.000000
X_87_10                       1.000000
X_88_22                       1.000000
X_89_43                       1.000000
X_90_43                       1.000000
X_91_19                       1.000000
X_92_3                        1.000000
X_93_9                        1.000000
X_94_18                       1.000000
X_95_45                       1.000000
X_96_29                       1.000000
X_97_14                       1.000000
X_98_38                       1.000000
X_99_23                       1.000000
X_100_39                      1.000000
X_101_8                       1.000000
X_102_17                      1.000000
X_103_11                      1.000000
X_104_22                      1.000000
X_105_4                       1.000000
X_106_34                      1.000000
X_107_35                      1.000000
X_108_33                      1.000000
X_109_46                      1.000000
X_110_14                      1.000000
X_111_50                      1.000000
X_112_25                      1.000000
X_113_4                       1.000000
X_114_30                      1.000000
X_115_20                      1.000000
X_116_16                      1.000000
X_117_32                      1.000000
X_118_6                       1.000000
X_119_42                      1.000000
X_120_6                       1.000000
X_121_34                      1.000000
X_122_14                      1.000000
X_123_19                      1.000000
X_124_10                      1.000000
X_125_14                      1.000000
X_126_13                      1.000000
X_127_24                      1.000000
X_128_35                      1.000000
X_129_3                       1.000000
X_130_7                       1.000000
X_131_44                      1.000000
X_132_46                      1.000000
X_133_8                       1.000000
X_134_36                      1.000000
X_135_50                      1.000000
X_136_33                      1.000000
X_137_12                      1.000000
X_138_25                      1.000000
X_139_8                       1.000000
X_140_42                      1.000000
X_141_29                      1.000000
X_142_41                      1.000000
X_143_18                      1.000000
X_144_5                       1.000000
X_145_8                       1.000000
X_146_45                      1.000000
X_147_4                       1.000000
X_148_11                      1.000000
X_149_40                      1.000000
X_150_6                       1.000000
X_151_34                      1.000000
X_152_28                      1.000000
X_153_30                      1.000000
X_154_11                      1.000000
X_155_30                      1.000000
X_156_19                      1.000000
X_157_21                      1.000000
X_158_30                      1.000000
X_159_40                      1.000000
X_160_40                      1.000000
X_161_3                       1.000000
X_162_31                      1.000000
X_163_28                      1.000000
X_164_21                      1.000000
X_165_9                       1.000000
X_166_36                      1.000000
X_167_43                      1.000000
X_168_28                      1.000000
X_169_46                      1.000000
X_170_6                       1.000000
X_171_38                      1.000000
X_172_20                      1.000000
X_173_27                      1.000000
X_174_32                      1.000000
X_175_11                      1.000000
X_176_49                      1.000000
X_177_28                      1.000000
X_178_24                      1.000000
X_179_47                      1.000000
X_180_26                      1.000000
X_181_21                      1.000000
X_182_37                      1.000000
X_183_23                      1.000000
X_184_23                      1.000000
X_185_2                       1.000000
X_186_27                      1.000000
X_187_41                      1.000000
X_188_34                      1.000000
X_189_49                      1.000000
X_190_17                      1.000000
X_191_47                      1.000000
X_192_37                      1.000000
X_193_48                      1.000000
X_194_7                       1.000000
X_195_20                      1.000000
X_196_35                      1.000000
X_197_37                      1.000000
X_198_18                      1.000000
X_199_6                       1.000000
X_200_20                      1.000000
X_201_40                      1.000000
X_202_1                       1.000000
X_203_8                       1.000000
X_204_22                      1.000000
X_205_7                       1.000000
X_206_37                      1.000000
X_207_35                      1.000000
X_208_16                      1.000000
X_209_8                       1.000000
X_210_29                      1.000000
X_211_12                      1.000000
X_212_6                       1.000000
X_213_32                      1.000000
X_214_27                      1.000000
X_215_4                       1.000000
X_216_3                       1.000000
X_217_45                      1.000000
X_218_29                      1.000000
X_219_34                      1.000000
X_220_13                      1.000000
X_221_3                       1.000000
X_222_19                      1.000000
X_223_21                      1.000000
X_224_25                      1.000000
X_225_27                      1.000000
X_226_1                       1.000000
X_227_19                      1.000000
X_228_47                      1.000000
X_229_36                      1.000000
X_230_20                      1.000000
X_231_14                      1.000000
X_232_23                      1.000000
X_233_13                      1.000000
X_234_30                      1.000000
X_235_32                      1.000000
X_236_19                      1.000000
X_237_6                       1.000000
X_238_44                      1.000000
X_239_31                      1.000000
X_240_24                      1.000000
X_241_39                      1.000000
X_242_2                       1.000000
X_243_20                      1.000000
X_244_48                      1.000000
X_245_18                      1.000000
X_246_38                      1.000000
X_247_29                      1.000000
X_248_43                      1.000000
X_249_29                      1.000000
X_250_32                      1.000000
X_251_18                      1.000000
X_252_11                      1.000000
X_253_25                      1.000000
X_254_49                      1.000000
X_255_15                      1.000000
X_256_10                      1.000000
X_257_34                      1.000000
X_258_5                       1.000000
X_259_28                      1.000000
X_260_24                      1.000000
X_261_36                      1.000000
X_262_46                      1.000000
X_263_25                      1.000000
X_264_28                      1.000000
X_265_43                      1.000000
X_266_48                      1.000000
X_267_14                      1.000000
X_268_4                       1.000000
X_269_15                      1.000000
X_270_19                      1.000000
X_271_45                      1.000000
X_272_7                       1.000000
X_273_35                      1.000000
X_274_33                      1.000000
X_275_20                      1.000000
X_276_22                      1.000000
X_277_31                      1.000000
X_278_17                      1.000000
X_279_18                      1.000000
X_280_22                      1.000000
X_281_37                      1.000000
X_282_39                      1.000000
X_283_28                      1.000000
X_284_10                      1.000000
X_285_49                      1.000000
X_286_26                      1.000000
X_287_3                       1.000000
X_288_25                      1.000000
X_289_32                      1.000000
X_290_40                      1.000000
X_291_22                      1.000000
X_292_31                      1.000000
X_293_16                      1.000000
X_294_15                      1.000000
X_295_38                      1.000000
X_296_23                      1.000000
X_297_33                      1.000000
X_298_35                      1.000000
X_299_10                      1.000000
X_300_40                      1.000000
X_301_12                      1.000000
X_302_9                       1.000000
X_303_37                      1.000000
X_304_46                      1.000000
X_305_24                      1.000000
X_306_43                      1.000000
X_307_19                      1.000000
X_308_43                      1.000000
X_309_8                       1.000000
X_310_22                      1.000000
X_311_6                       1.000000
X_312_15                      1.000000
X_313_49                      1.000000
X_314_43                      1.000000
X_315_22                      1.000000
X_316_1                       1.000000
X_317_6                       1.000000
X_318_47                      1.000000
X_319_10                      1.000000
X_320_42                      1.000000
X_321_23                      1.000000
X_322_42                      1.000000
X_323_21                      1.000000
X_324_21                      1.000000
X_325_48                      1.000000
X_326_45                      1.000000
X_327_35                      1.000000
X_328_50                      1.000000
X_329_41                      1.000000
X_330_36                      1.000000
X_331_33                      1.000000
X_332_23                      1.000000
X_333_5                       1.000000
X_334_6                       1.000000
X_335_21                      1.000000
X_336_23                      1.000000
X_337_49                      1.000000
X_338_8                       1.000000
X_339_7                       1.000000
X_340_47                      1.000000
X_341_36                      1.000000
X_342_9                       1.000000
X_343_38                      1.000000
X_344_14                      1.000000
X_345_38                      1.000000
X_346_15                      1.000000
X_347_44                      1.000000
X_348_26                      1.000000
X_349_28                      1.000000
X_350_5                       1.000000
X_351_17                      1.000000
X_352_26                      1.000000
X_353_14                      1.000000
X_354_11                      1.000000
X_355_32                      1.000000
X_356_11                      1.000000
X_357_40                      1.000000
X_358_10                      1.000000
X_359_44                      1.000000
X_360_46                      1.000000
X_361_1                       1.000000
X_362_18                      1.000000
X_363_38                      1.000000
X_364_40                      1.000000
X_365_32                      1.000000
X_366_9                       1.000000
X_367_12                      1.000000
X_368_7                       1.000000
X_369_40                      1.000000
X_370_49                      1.000000
X_371_26                      1.000000
X_372_12                      1.000000
X_373_37                      1.000000
X_374_40                      1.000000
X_375_4                       1.000000
X_376_20                      1.000000
X_377_27                      1.000000
X_378_21                      1.000000
X_379_10                      1.000000
X_380_19                      1.000000
X_381_32                      1.000000
X_382_41                      1.000000
X_383_12                      1.000000
X_384_41                      1.000000
X_385_13                      1.000000
X_386_33                      1.000000
X_387_17                      1.000000
X_388_50                      1.000000
X_389_21                      1.000000
X_390_27                      1.000000
X_391_16                      1.000000
X_392_32                      1.000000
X_393_28                      1.000000
X_394_9                       1.000000
X_395_21                      1.000000
X_396_16                      1.000000
X_397_31                      1.000000
X_398_34                      1.000000
X_399_16                      1.000000
X_400_43                      1.000000
X_401_11                      1.000000
X_402_15                      1.000000
X_403_8                       1.000000
X_404_24                      1.000000
X_405_39                      1.000000
X_406_19                      1.000000
X_407_48                      1.000000
X_408_27                      1.000000
X_409_35                      1.000000
X_410_5                       1.000000
X_411_7                       1.000000
X_412_37                      1.000000
X_413_1                       1.000000
X_414_29                      1.000000
X_415_30                      1.000000
X_416_25                      1.000000
X_417_23                      1.000000
X_418_46                      1.000000
X_419_23                      1.000000
X_420_39                      1.000000
X_421_4                       1.000000
X_422_18                      1.000000
X_423_21                      1.000000
X_424_21                      1.000000
X_425_48                      1.000000
X_426_45                      1.000000
X_427_4                       1.000000
X_428_37                      1.000000
X_429_7                       1.000000
X_430_46                      1.000000
X_431_50                      1.000000
X_432_22                      1.000000
X_433_10                      1.000000
X_434_9                       1.000000
X_435_38                      1.000000
X_436_36                      1.000000
X_437_47                      1.000000
X_438_33                      1.000000
X_439_22                      1.000000
X_440_12                      1.000000
X_441_46                      1.000000
X_442_11                      1.000000
X_443_10                      1.000000
X_444_29                      1.000000
X_445_5                       1.000000
X_446_45                      1.000000
X_447_19                      1.000000
X_448_40                      1.000000
X_449_49                      1.000000
X_450_9                       1.000000
X_451_39                      1.000000
X_452_17                      1.000000
X_453_17                      1.000000
X_454_34                      1.000000
X_455_20                      1.000000
X_456_18                      1.000000
X_457_47                      1.000000
X_458_37                      1.000000
X_459_24                      1.000000
X_460_22                      1.000000
X_461_31                      1.000000
X_462_47                      1.000000
X_463_38                      1.000000
X_464_16                      1.000000
X_465_25                      1.000000
X_466_34                      1.000000
X_467_7                       1.000000
X_468_41                      1.000000
X_469_8                       1.000000
X_470_44                      1.000000
X_471_42                      1.000000
X_472_48                      1.000000
X_473_25                      1.000000
X_474_30                      1.000000
X_475_22                      1.000000
X_476_39                      1.000000
X_477_20                      1.000000
X_478_22                      1.000000
X_479_25                      1.000000
X_480_12                      1.000000
X_481_5                       1.000000
X_482_30                      1.000000
X_483_17                      1.000000
X_484_31                      1.000000
X_485_38                      1.000000
X_486_24                      1.000000
X_487_29                      1.000000
X_488_32                      1.000000
X_489_12                      1.000000
X_490_48                      1.000000
X_491_39                      1.000000
X_492_18                      1.000000
X_493_44                      1.000000
X_494_29                      1.000000
X_495_10                      1.000000
X_496_16                      1.000000
X_497_41                      1.000000
X_498_2                       1.000000
X_499_3                       1.000000
X_500_44                      1.000000
All other variables in the range 1-25001 are 0.
